50 8
618 431
897 93
720 415
556 542
554 784
202 684
397 432
678 439
493 402
318 605
808 171
295 128
837 745
946 637
647 809
565 697
226 224
389 785
653 145
472 603
419 569
756 298
335 753
472 422
791 660
717 693
173 574
742 746
629 564
812 198
651 540
845 28
672 75
734 655
772 693
883 36
622 418
318 729
842 102
559 778
904 135
210 116
634 458
687 153
622 528
190 183
741 481
777 698
487 399
525 158
